
  32    1
  10

   0   0   7 2 3 4 5 7 8 11 
   9   2   5 21 13 10 9 6 
   7  10   5 26 21 15 14 9 
   3   5   4 21 14 13 9 
   3  10   5 18 16 15 14 13 
  10   7   6 31 26 25 18 16 14 
   8   7   3 25 21 12 
   8   4   3 26 18 13 
  10   7   5 25 24 19 18 17 
   2  10   4 25 24 17 14 
   2  10   6 29 26 25 24 23 18 
   6  10   4 29 24 18 17 
   1   6   5 31 25 24 23 19 
   6  10   4 30 23 20 19 
   4   3   4 30 23 20 19 
   2  10   5 30 29 28 24 22 
   4  10   4 31 28 23 22 
   5  10   3 30 22 20 
  10  10   3 29 28 22 
   6  10   2 28 27 
   1   6   2 30 29 
   1   9   1 27 
  10   7   1 27 
   3   8   1 27 
   6  10   1 27 
   6   9   1 27 
  10   6   1 32
   3   7   1 32
   6  10   1 32
  10  10   1 32
   3   7   1 32
   0   0   0 
